NAME: line_10_8
TYPE: TSP
COMMENT: line_10_8
DIMENSION: 10
EDGE_WEIGHT_TYPE: EUC_2D
NODE_COORD_SECTION
1 0.0 18.0
2 0.0 32.0
3 0.0 93.0
4 0.0 17.0
5 0.0 35.0
6 0.0 65.0
7 0.0 8.0
8 0.0 5.0
9 0.0 99.0
10 0.0 76.0
